Route #1: 4 12 25 17 26 37 38 46 47 49 50 40 30 31 19 27 18 13 1 2 5 3 6 20 21 7 8 9 22 28 32 29 14 10 15 23 16 11 24 34 44 33 39 43 53 63 75 76 69 56 57 64 84 85 95 94 93 83 92 100 99 88 82 89 74 68 52 42 41 51 55 62 67 81 73 61 60 72 80 87 98 91 90 97 96 86 78 79 66 71 70 77 65 58 59 54 45 36 35 48
Cost 47435
